StringID   Type       x          y          demand     ReadyTime  DueDate    ServiceTime
D0         d               8.725    91.342      0.000      0.000     23.983      0.000
S0         f               8.725    91.342      0.000      0.000     23.983      0.000
S1         f              27.360    52.480      0.000      0.000     23.983      0.000
S2         f              95.430    86.560      0.000      0.000     23.983      0.000
C0         c              40.529    42.421      0.085     18.205     18.789      0.100
C1         c              88.901    71.811      0.054     12.569     13.144      0.050
C2         c              54.674    53.325      0.046      9.311      9.784      0.100
C3         c              32.353    59.604      0.094     12.478     13.088      0.117
C4         c              88.874    36.538      0.021     13.750     14.249      0.133

Q Vehicle fuel tank capacity /131.2700/
C Vehicle load capacity /1.0400/
r fuel consumption rate /0.4785/
g inverse refueling rate /0.0069/
v average Velocity /43.5200/
gv charging speed /144.9100/

--------------------
instance_id /350/
number of clusters /4/
working_startTime (hour) /8.00/
working_endTime (hour) /20.68/
instance_endTime (hour) /23.98/
service_time_type /random/
demand_type /random/
instance_type /C/
instance x range /[0.0, 100.0]/
instance y range /[0.0, 100.0]/
cs_time_to_depot (hour)/[0.9903248120893626,1.9953301830874506]/
